18
17
15 7 0 12 6 14 2 13 1 11 17 8 5 16 3
11 17 15
8 3 6 7 17
1 13 4 9 8 16 5 7 14 10 15 6 3 2
12 5 0 10 9 7 15 17 1 2 11 4 13 14 6
10 1 5 12 13 9 11 4 2 7 14 16
0 2 11 14 6 3 10 4 7 15 16 8 5
2 8 15 12 13 11 5 16 3 6 0 10 1 4
12 7 1 16 0 17 15 8 13 11 5 3
6 15 4 0 7 1
8 3 10 7 13 16 5 1 15 2 12 11 0 9 14 6 4
7 4 15 2 16 17 13 6 9 0 10 5 1
7
11 7 2 0 5 8
0 13 14 2 6 4 5 8 15 11
14 9 11 10 0 2 5 6 12 13 4 7 3 16
1 12 4 15 14 0 7 5 6
